Ni  O  H                                
   1.00000000000000     
     5.8949400000000001    0.0000000000000000    0.0000000000000000
    -3.0423120877437846    5.1534201833023525    0.0000000000000000
     0.0000000000000000    0.0000000000000000   36.0000000000000000
   Ni   O    H 
    20    40    19
Selective dynamics
Direct
  0.6364528349257270  0.2162203430675333  0.2457702879286856   F   F   F
  0.6364634165002556  0.7162119473252133  0.2457730729112910   F   F   F
  0.0255519715969541  0.4183604341764209  0.3732725732064637   F   F   F
  0.0255642391499009  0.9183520359229931  0.3732756360882306   F   F   F
  0.1364529168890343  0.2162207258655542  0.2457702043839447   F   F   F
  0.1364634984635558  0.7162123301232413  0.2457729893665643   F   F   F
  0.5255537439868334  0.4183608144633340  0.3732727675608984   F   F   F
  0.5255643255613549  0.9183524187210139  0.3732755525435039   F   F   F
  0.4146536083646239  0.6205008424870186  0.5007753869924585   F   F   F
  0.4146641891828793  0.1204924526261237  0.5007781719750639   F   F   F
  0.8009082238212670  0.8189048404275496  0.6289466671186474   T   T   T
  0.8009191926414942  0.3187845476003019  0.6290586955165622   T   T   T
  0.9146536947760779  0.6205012252850395  0.5007753034477318   F   F   F
  0.9146642755943333  0.1204928354241446  0.5007780884303372   F   F   F
  0.3002766026944101  0.8183794412735637  0.6288183473006939   T   T   T
  0.3004619978076093  0.3189449142617207  0.6288675224337652   T   T   T
  0.1941817029035846  0.0294635590038155  0.7548804624074492   T   T   T
  0.1888435470225716  0.5325087189761462  0.7563388500295147   T   T   T
  0.6821026282297638  0.0305057236741035  0.7557569914870044   T   T   T
  0.6877674712136468  0.5285578623422325  0.7558869669287631   T   T   T
  0.4472065212933245  0.3679142853604063  0.2158288908412729   F   F   F
  0.4764617669568310  0.8892528788773859  0.2209227122130244   F   F   F
  0.7964738583789028  0.5431749417008618  0.2706181570794044   F   F   F
  0.8256797250458163  0.0645388264522850  0.2757014233167325   F   F   F
  0.8363073483911236  0.5700543739581789  0.3433314540182195   F   F   F
  0.8655635933646479  0.0913949110339800  0.3484252757677808   F   F   F
  0.9472066077047785  0.3679146681584271  0.2158288072965462   F   F   F
  0.9764618533682849  0.8892532616754067  0.2209226286683048   F   F   F
  0.2964739382426842  0.5431753218633446  0.2706183513121729   F   F   F
  0.3256798070091165  0.0645392092503059  0.2757013397720058   F   F   F
  0.3363074303544238  0.5700547567562069  0.3433313704734928   F   F   F
  0.3655626752616641  0.0913933561546045  0.3484251918452372   F   F   F
  0.1855738047200006  0.7453153525225673  0.3981206929662449   F   F   F
  0.2147796713869070  0.2666792372739977  0.4032039592035730   F   F   F
  0.2254072947322143  0.7721947847798916  0.4708339899050600   F   F   F
  0.2546625396394546  0.2935333841782892  0.4759278112768044   F   F   F
  0.5746746318177998  0.9474554411203471  0.5256232561431773   F   F   F
  0.6038804984847062  0.4688193258717703  0.5307065223805125   F   F   F
  0.6095993272712974  0.9694624700712708  0.5993561459257819   T   T   T
  0.6412072634673294  0.4924990152869810  0.6046674654501913   T   T   T
  0.6855738890319287  0.7453157326850501  0.3981208871990063   F   F   F
  0.7147797577983610  0.2666796200720185  0.4032038756588463   F   F   F
  0.7254073811436683  0.7721951675779124  0.4708339063603191   F   F   F
  0.7546626260509086  0.2935337669763101  0.4759277277320777   F   F   F
  0.0746747116815811  0.9474558212828299  0.5256234503759458   F   F   F
  0.1038805804480134  0.4688197086697983  0.5307064388357858   F   F   F
  0.1092581472749288  0.9694708182098282  0.5991882615191741   T   T   T
  0.1412700572880823  0.4918458407870077  0.6046699760735876   T   T   T
  0.9613617465018081  0.1448938681889516  0.6534903417829412   T   T   T
  0.9919661637721546  0.6686064978543271  0.6583721111185454   T   T   T
  0.0080946562780184  0.1677479175709209  0.7276920661615591   T   T   T
  0.0256310721331374  0.7041384534648358  0.7309801021594851   T   T   T
  0.3501866626980643  0.3499479457010324  0.7796892693962931   T   T   T
  0.3654832990754713  0.9026613570059894  0.7823629122967048   T   T   T
  0.4586630003460144  0.1451925297573311  0.6530995764958689   T   T   T
  0.4920098656187548  0.6688527495574448  0.6586577368745310   T   T   T
  0.4910914621533706  0.1796333052032750  0.7248567740285168   T   T   T
  0.5267377410757135  0.7020594252906491  0.7328181040144059   T   T   T
  0.8463665321533611  0.3569850966797290  0.7789667284296655   T   T   T
  0.8941089248483536  0.8854117087020441  0.7853516108336223   T   T   T
  0.4236484952811281  0.3525096309279547  0.1879408452572946   F   F   F
  0.8492336920302748  0.0799977493011426  0.3035878105030747   F   F   F
  0.8127476364005091  0.5546497220368494  0.3154431305350869   F   F   F
  0.9236485816925821  0.3525100137259827  0.1879407617125679   F   F   F
  0.3492337718940561  0.0799981294636254  0.3035880047358432   F   F   F
  0.3127477162642904  0.5546501021993322  0.3154433247678554   F   F   F
  0.2383336383713655  0.2821381601228552  0.4310903463899152   F   F   F
  0.2018492687200180  0.7567901303474400  0.4429459443210746   F   F   F
  0.6274344654691717  0.4842782487206279  0.5585929095668476   F   F   F
  0.5868870073370402  0.9552205025133418  0.5714754266256321   T   T   T
  0.7383337226833007  0.2821385402853380  0.4310905406226837   F   F   F
  0.7018493551314720  0.7567905131454680  0.4429458607763479   F   F   F
  0.1274345453329531  0.4842786288831107  0.5585931037996161   F   F   F
  0.0859450999911004  0.9549416385424365  0.5713116586184768   T   T   T
  0.0151378961515221  0.6880229472510209  0.6863361423211813   T   T   T
  0.9894671135370245  0.1462662517289601  0.6997100998497245   T   T   T
  0.5146744784574437  0.6867914384170675  0.6864736740715927   T   T   T
  0.4614526467406463  0.1561429129807550  0.6967912002007637   T   T   T
  0.9431702035484761  0.9116143991194008  0.8115739680463108   T   T   T
 
  0.00000000E+00  0.00000000E+00  0.00000000E+00
  0.00000000E+00  0.00000000E+00  0.00000000E+00
  0.00000000E+00  0.00000000E+00  0.00000000E+00
  0.00000000E+00  0.00000000E+00  0.00000000E+00
  0.00000000E+00  0.00000000E+00  0.00000000E+00
  0.00000000E+00  0.00000000E+00  0.00000000E+00
  0.00000000E+00  0.00000000E+00  0.00000000E+00
  0.00000000E+00  0.00000000E+00  0.00000000E+00
  0.00000000E+00  0.00000000E+00  0.00000000E+00
  0.00000000E+00  0.00000000E+00  0.00000000E+00
  0.00000000E+00  0.00000000E+00  0.00000000E+00
  0.00000000E+00  0.00000000E+00  0.00000000E+00
  0.00000000E+00  0.00000000E+00  0.00000000E+00
  0.00000000E+00  0.00000000E+00  0.00000000E+00
  0.00000000E+00  0.00000000E+00  0.00000000E+00
  0.00000000E+00  0.00000000E+00  0.00000000E+00
  0.00000000E+00  0.00000000E+00  0.00000000E+00
  0.00000000E+00  0.00000000E+00  0.00000000E+00
  0.00000000E+00  0.00000000E+00  0.00000000E+00
  0.00000000E+00  0.00000000E+00  0.00000000E+00
  0.00000000E+00  0.00000000E+00  0.00000000E+00
  0.00000000E+00  0.00000000E+00  0.00000000E+00
  0.00000000E+00  0.00000000E+00  0.00000000E+00
  0.00000000E+00  0.00000000E+00  0.00000000E+00
  0.00000000E+00  0.00000000E+00  0.00000000E+00
  0.00000000E+00  0.00000000E+00  0.00000000E+00
  0.00000000E+00  0.00000000E+00  0.00000000E+00
  0.00000000E+00  0.00000000E+00  0.00000000E+00
  0.00000000E+00  0.00000000E+00  0.00000000E+00
  0.00000000E+00  0.00000000E+00  0.00000000E+00
  0.00000000E+00  0.00000000E+00  0.00000000E+00
  0.00000000E+00  0.00000000E+00  0.00000000E+00
  0.00000000E+00  0.00000000E+00  0.00000000E+00
  0.00000000E+00  0.00000000E+00  0.00000000E+00
  0.00000000E+00  0.00000000E+00  0.00000000E+00
  0.00000000E+00  0.00000000E+00  0.00000000E+00
  0.00000000E+00  0.00000000E+00  0.00000000E+00
  0.00000000E+00  0.00000000E+00  0.00000000E+00
  0.00000000E+00  0.00000000E+00  0.00000000E+00
  0.00000000E+00  0.00000000E+00  0.00000000E+00
  0.00000000E+00  0.00000000E+00  0.00000000E+00
  0.00000000E+00  0.00000000E+00  0.00000000E+00
  0.00000000E+00  0.00000000E+00  0.00000000E+00
  0.00000000E+00  0.00000000E+00  0.00000000E+00
  0.00000000E+00  0.00000000E+00  0.00000000E+00
  0.00000000E+00  0.00000000E+00  0.00000000E+00
  0.00000000E+00  0.00000000E+00  0.00000000E+00
  0.00000000E+00  0.00000000E+00  0.00000000E+00
  0.00000000E+00  0.00000000E+00  0.00000000E+00
  0.00000000E+00  0.00000000E+00  0.00000000E+00
  0.00000000E+00  0.00000000E+00  0.00000000E+00
  0.00000000E+00  0.00000000E+00  0.00000000E+00
  0.00000000E+00  0.00000000E+00  0.00000000E+00
  0.00000000E+00  0.00000000E+00  0.00000000E+00
  0.00000000E+00  0.00000000E+00  0.00000000E+00
  0.00000000E+00  0.00000000E+00  0.00000000E+00
  0.00000000E+00  0.00000000E+00  0.00000000E+00
  0.00000000E+00  0.00000000E+00  0.00000000E+00
  0.00000000E+00  0.00000000E+00  0.00000000E+00
  0.00000000E+00  0.00000000E+00  0.00000000E+00
  0.00000000E+00  0.00000000E+00  0.00000000E+00
  0.00000000E+00  0.00000000E+00  0.00000000E+00
  0.00000000E+00  0.00000000E+00  0.00000000E+00
  0.00000000E+00  0.00000000E+00  0.00000000E+00
  0.00000000E+00  0.00000000E+00  0.00000000E+00
  0.00000000E+00  0.00000000E+00  0.00000000E+00
  0.00000000E+00  0.00000000E+00  0.00000000E+00
  0.00000000E+00  0.00000000E+00  0.00000000E+00
  0.00000000E+00  0.00000000E+00  0.00000000E+00
  0.00000000E+00  0.00000000E+00  0.00000000E+00
  0.00000000E+00  0.00000000E+00  0.00000000E+00
  0.00000000E+00  0.00000000E+00  0.00000000E+00
  0.00000000E+00  0.00000000E+00  0.00000000E+00
  0.00000000E+00  0.00000000E+00  0.00000000E+00
  0.00000000E+00  0.00000000E+00  0.00000000E+00
  0.00000000E+00  0.00000000E+00  0.00000000E+00
  0.00000000E+00  0.00000000E+00  0.00000000E+00
  0.00000000E+00  0.00000000E+00  0.00000000E+00
  0.00000000E+00  0.00000000E+00  0.00000000E+00
