Ni  O  H                                
   1.00000000000000     
     5.8949400000000001    0.0000000000000000    0.0000000000000000
    -3.0423120880000001    5.1534201829999997    0.0000000000000000
     0.0000000000000000    0.0000000000000000   36.0000000000000000
   Ni   O    H 
    20    40    18
Selective dynamics
Direct
  0.6352019120638985  0.2173469191770749  0.2448605555555545   F   F   F
  0.6352114919027940  0.7173371991274351  0.2448630555555553   F   F   F
  0.0243019834354641  0.4194864620453913  0.3723625000000013   F   F   F
  0.0243142610934228  0.9194786824546455  0.3723658333333333   F   F   F
  0.1352019120638985  0.2173469191770749  0.2448602777777751   F   F   F
  0.1352114919027940  0.7173371991274351  0.2448630555555553   F   F   F
  0.5243019834354641  0.4194864620453913  0.3723630555555530   F   F   F
  0.5243142610934228  0.9194786824546455  0.3723658333333333   F   F   F
  0.4134037511771353  0.6216260049137148  0.4998652777777792   F   F   F
  0.4134139965894263  0.1216182608333582  0.4998683333333318   F   F   F
  0.7991084544230276  0.8216824062701846  0.6277409262419908   T   T   T
  0.7988779253465950  0.3215191487387941  0.6276298210480675   T   T   T
  0.9134020548070296  0.6216260049137148  0.4998652777777792   F   F   F
  0.9134139965894263  0.1216182608333582  0.4998683333333318   F   F   F
  0.3001101491933227  0.8235087526096621  0.6272789245780785   T   T   T
  0.2990809447290061  0.3210532462611440  0.6275236765952812   T   T   T
  0.1872438709348927  0.0273139462846572  0.7560674176878734   T   T   T
  0.1864957886854413  0.5224301436458560  0.7559653274754794   T   T   T
  0.6898281361607133  0.0266660386523156  0.7557590176195461   T   T   T
  0.6876145951026871  0.5250820103923388  0.7563465599089128   T   T   T
  0.4459563498238168  0.3690403523224575  0.2149188888888887   F   F   F
  0.4752103664746130  0.8903776205046157  0.2200127777777752   F   F   F
  0.7952231020794258  0.5443006586680283  0.2697083333333339   F   F   F
  0.8244297338162454  0.0656651287850138  0.2747916666666654   F   F   F
  0.8350564211953824  0.5711798951907809  0.3424216666666666   F   F   F
  0.8643127997896869  0.0925191393422224  0.3475155555555531   F   F   F
  0.9459563498238168  0.3690403523224575  0.2149188888888887   F   F   F
  0.9752103664746130  0.8903776205046157  0.2200127777777752   F   F   F
  0.2952231020794258  0.5443006586680283  0.2697083333333339   F   F   F
  0.3244280374461397  0.0656651287850138  0.2747916666666654   F   F   F
  0.3350564211953824  0.5711798951907809  0.3424216666666666   F   F   F
  0.3643127997896869  0.0925191393422224  0.3475150000000014   F   F   F
  0.1843224785298432  0.7464421419952387  0.3972108333333324   F   F   F
  0.2135281088176981  0.2678046716533373  0.4022941666666640   F   F   F
  0.2241574940159055  0.7733213785179913  0.4699241666666651   F   F   F
  0.2534111747911396  0.2946586822105459  0.4750177777777793   F   F   F
  0.5734232448225569  0.9485797444046682  0.5247133333333309   F   F   F
  0.6026281801892637  0.4699442145216608  0.5297963888888901   F   F   F
  0.6118017035944803  0.9730349444768009  0.5978590994270192   T   T   T
  0.6397621787090699  0.4955760912837732  0.6031748818099771   T   T   T
  0.6843241748999489  0.7464421419952387  0.3972111111111118   F   F   F
  0.7135291102666628  0.2678066121122242  0.4022941666666640   F   F   F
  0.7241574940159055  0.7733213785179913  0.4699241666666651   F   F   F
  0.7534138726102100  0.2946606226694328  0.4750177777777793   F   F   F
  0.0734232448225569  0.9485797444046682  0.5247136111111104   F   F   F
  0.1026298765593694  0.4699442145216608  0.5297963888888901   F   F   F
  0.1089309453048344  0.9725452169509481  0.5980328265907957   T   T   T
  0.1387835863687599  0.4946633828193896  0.6034704259111550   T   T   T
  0.9575836428529385  0.1466295963725983  0.6523545880879809   T   T   T
  0.9886981854002030  0.6716559877946295  0.6571574790071111   T   T   T
  0.9876060451615487  0.1751746618449488  0.7254725660513373   T   T   T
  0.0312087721047831  0.6961215253365367  0.7324729581534299   T   T   T
  0.3443183851194931  0.3544752588769242  0.7797359170142002   T   T   T
  0.3893575588076104  0.8750688030020441  0.7863247461919158   T   T   T
  0.4593292948077377  0.1488657764987593  0.6508517081967113   T   T   T
  0.4878811981910900  0.6709880857003441  0.6569085270990129   T   T   T
  0.5236324561651031  0.1884806653870683  0.7319879867068764   T   T   T
  0.5202067527429506  0.6996341569935538  0.7309790383307018   T   T   T
  0.8536658099271790  0.3474143975901001  0.7808629726758340   T   T   T
  0.8529748574302118  0.8669182895350431  0.7805831373614964   T   T   T
  0.4223975451731832  0.3536350492070852  0.1870311111111107   F   F   F
  0.8479843480057241  0.0811247647492692  0.3026780555555533   F   F   F
  0.8114969216236005  0.5557765325342956  0.3145330555555574   F   F   F
  0.9223975451731832  0.3536350492070852  0.1870308333333313   F   F   F
  0.3479843480057241  0.0811247647492692  0.3026783333333327   F   F   F
  0.3114986179937063  0.5557765325342956  0.3145336111111092   F   F   F
  0.2370834179283250  0.2832623671586987  0.4301802777777795   F   F   F
  0.2005976879163072  0.7579141349437322  0.4420358333333354   F   F   F
  0.6261844907488481  0.4854038504859091  0.5576827777777780   F   F   F
  0.5893703958070162  0.9583160461616771  0.5699610071161771   T   T   T
  0.7370844193772896  0.2832643076175856  0.4301808333333312   F   F   F
  0.7005969929951590  0.7579160754026191  0.4420358333333354   F   F   F
  0.1261844907488481  0.4854038504859091  0.5576830555555574   F   F   F
  0.0867536206579871  0.9572821030419973  0.5701265922175693   T   T   T
  0.0125406911547330  0.6877169332677511  0.6847526931070220   T   T   T
  0.9586629191471374  0.1570401811105313  0.6973686289885563   T   T   T
  0.4356488745103277  0.8965950961172098  0.8126117311860099   T   T   T
  0.5098718324346123  0.6884334774531595  0.6846267596905804   T   T   T
 
  0.00000000E+00  0.00000000E+00  0.00000000E+00
  0.00000000E+00  0.00000000E+00  0.00000000E+00
  0.00000000E+00  0.00000000E+00  0.00000000E+00
  0.00000000E+00  0.00000000E+00  0.00000000E+00
  0.00000000E+00  0.00000000E+00  0.00000000E+00
  0.00000000E+00  0.00000000E+00  0.00000000E+00
  0.00000000E+00  0.00000000E+00  0.00000000E+00
  0.00000000E+00  0.00000000E+00  0.00000000E+00
  0.00000000E+00  0.00000000E+00  0.00000000E+00
  0.00000000E+00  0.00000000E+00  0.00000000E+00
  0.00000000E+00  0.00000000E+00  0.00000000E+00
  0.00000000E+00  0.00000000E+00  0.00000000E+00
  0.00000000E+00  0.00000000E+00  0.00000000E+00
  0.00000000E+00  0.00000000E+00  0.00000000E+00
  0.00000000E+00  0.00000000E+00  0.00000000E+00
  0.00000000E+00  0.00000000E+00  0.00000000E+00
  0.00000000E+00  0.00000000E+00  0.00000000E+00
  0.00000000E+00  0.00000000E+00  0.00000000E+00
  0.00000000E+00  0.00000000E+00  0.00000000E+00
  0.00000000E+00  0.00000000E+00  0.00000000E+00
  0.00000000E+00  0.00000000E+00  0.00000000E+00
  0.00000000E+00  0.00000000E+00  0.00000000E+00
  0.00000000E+00  0.00000000E+00  0.00000000E+00
  0.00000000E+00  0.00000000E+00  0.00000000E+00
  0.00000000E+00  0.00000000E+00  0.00000000E+00
  0.00000000E+00  0.00000000E+00  0.00000000E+00
  0.00000000E+00  0.00000000E+00  0.00000000E+00
  0.00000000E+00  0.00000000E+00  0.00000000E+00
  0.00000000E+00  0.00000000E+00  0.00000000E+00
  0.00000000E+00  0.00000000E+00  0.00000000E+00
  0.00000000E+00  0.00000000E+00  0.00000000E+00
  0.00000000E+00  0.00000000E+00  0.00000000E+00
  0.00000000E+00  0.00000000E+00  0.00000000E+00
  0.00000000E+00  0.00000000E+00  0.00000000E+00
  0.00000000E+00  0.00000000E+00  0.00000000E+00
  0.00000000E+00  0.00000000E+00  0.00000000E+00
  0.00000000E+00  0.00000000E+00  0.00000000E+00
  0.00000000E+00  0.00000000E+00  0.00000000E+00
  0.00000000E+00  0.00000000E+00  0.00000000E+00
  0.00000000E+00  0.00000000E+00  0.00000000E+00
  0.00000000E+00  0.00000000E+00  0.00000000E+00
  0.00000000E+00  0.00000000E+00  0.00000000E+00
  0.00000000E+00  0.00000000E+00  0.00000000E+00
  0.00000000E+00  0.00000000E+00  0.00000000E+00
  0.00000000E+00  0.00000000E+00  0.00000000E+00
  0.00000000E+00  0.00000000E+00  0.00000000E+00
  0.00000000E+00  0.00000000E+00  0.00000000E+00
  0.00000000E+00  0.00000000E+00  0.00000000E+00
  0.00000000E+00  0.00000000E+00  0.00000000E+00
  0.00000000E+00  0.00000000E+00  0.00000000E+00
  0.00000000E+00  0.00000000E+00  0.00000000E+00
  0.00000000E+00  0.00000000E+00  0.00000000E+00
  0.00000000E+00  0.00000000E+00  0.00000000E+00
  0.00000000E+00  0.00000000E+00  0.00000000E+00
  0.00000000E+00  0.00000000E+00  0.00000000E+00
  0.00000000E+00  0.00000000E+00  0.00000000E+00
  0.00000000E+00  0.00000000E+00  0.00000000E+00
  0.00000000E+00  0.00000000E+00  0.00000000E+00
  0.00000000E+00  0.00000000E+00  0.00000000E+00
  0.00000000E+00  0.00000000E+00  0.00000000E+00
  0.00000000E+00  0.00000000E+00  0.00000000E+00
  0.00000000E+00  0.00000000E+00  0.00000000E+00
  0.00000000E+00  0.00000000E+00  0.00000000E+00
  0.00000000E+00  0.00000000E+00  0.00000000E+00
  0.00000000E+00  0.00000000E+00  0.00000000E+00
  0.00000000E+00  0.00000000E+00  0.00000000E+00
  0.00000000E+00  0.00000000E+00  0.00000000E+00
  0.00000000E+00  0.00000000E+00  0.00000000E+00
  0.00000000E+00  0.00000000E+00  0.00000000E+00
  0.00000000E+00  0.00000000E+00  0.00000000E+00
  0.00000000E+00  0.00000000E+00  0.00000000E+00
  0.00000000E+00  0.00000000E+00  0.00000000E+00
  0.00000000E+00  0.00000000E+00  0.00000000E+00
  0.00000000E+00  0.00000000E+00  0.00000000E+00
  0.00000000E+00  0.00000000E+00  0.00000000E+00
  0.00000000E+00  0.00000000E+00  0.00000000E+00
  0.00000000E+00  0.00000000E+00  0.00000000E+00
  0.00000000E+00  0.00000000E+00  0.00000000E+00
