Ni  O  H                                
   1.00000000000000     
     5.8949400000000001    0.0000000000000000    0.0000000000000000
    -3.0423120877437846    5.1534201833023525    0.0000000000000000
     0.0000000000000000    0.0000000000000000   36.0000000000000000
   Ni   O    H 
    20    40    20
Selective dynamics
Direct
  0.6294415112061458  0.2170931946061927  0.2450195231779233   F   F   F
  0.6294520927806744  0.7170847988638727  0.2450223081605287   F   F   F
  0.0185406478773729  0.4192332857150802  0.3725218084557014   F   F   F
  0.0185529154303197  0.9192248874616524  0.3725248713374683   F   F   F
  0.1294415931694530  0.2170935774042135  0.2450194396331824   F   F   F
  0.1294521747439745  0.7170851816619006  0.2450222246158020   F   F   F
  0.5185424202672522  0.4192336660019933  0.3725220028101361   F   F   F
  0.5185530018417737  0.9192252702596733  0.3725247877927416   F   F   F
  0.4076422846450427  0.6213736940256780  0.5000246222416962   F   F   F
  0.4076528654632980  0.1213653041647831  0.5000274072243016   F   F   F
  0.7950908388382061  0.8218319225769193  0.6282385617608952   T   T   T
  0.7950888237927316  0.3219934832866613  0.6281629533209241   T   T   T
  0.9076423710564967  0.6213740768236988  0.5000245386969695   F   F   F
  0.9076529518747520  0.1213656869628039  0.5000273236795749   F   F   F
  0.2950610026850171  0.8218220331564865  0.6282387408739680   T   T   T
  0.2950949965627032  0.3219934090172600  0.6281600209354465   T   T   T
  0.1815331072863842  0.0269467893118787  0.7554725879599005   T   T   T
  0.1795117316232435  0.5210764937753254  0.7560159313468375   T   T   T
  0.6815757984904280  0.0269931905834113  0.7554802336077913   T   T   T
  0.6795171430363993  0.5210822408748825  0.7560177454598076   T   T   T
  0.4401951975737433  0.3687871368990656  0.2150781260905106   F   F   F
  0.4694504432372497  0.8901257304160453  0.2201719474622621   F   F   F
  0.7894625346593216  0.5440477932395211  0.2698673923286421   F   F   F
  0.8186684013262351  0.0654116779909444  0.2749506585659702   F   F   F
  0.8292960246715424  0.5709272254968383  0.3425806892674572   F   F   F
  0.8585522696450667  0.0922677625726394  0.3476745110170185   F   F   F
  0.9401952839851972  0.3687875196970865  0.2150780425457839   F   F   F
  0.9694505296487037  0.8901261132140661  0.2201718639175425   F   F   F
  0.2894626145231030  0.5440481734020040  0.2698675865614106   F   F   F
  0.3186684832895352  0.0654120607889652  0.2749505750212435   F   F   F
  0.3292961066348425  0.5709276082948662  0.3425806057227305   F   F   F
  0.3585513515420828  0.0922662076932639  0.3476744270944749   F   F   F
  0.1785624810004194  0.7461882040612267  0.3973699282154826   F   F   F
  0.2077683476673258  0.2675520888126570  0.4024531944528107   F   F   F
  0.2183959710126331  0.7730676363185509  0.4700832251542977   F   F   F
  0.2476512159198734  0.2944062357169486  0.4751770465260421   F   F   F
  0.5676633080982185  0.9483282926590064  0.5248724913924150   F   F   F
  0.5968691747651249  0.4696921774104297  0.5299557576297502   F   F   F
  0.6045941351421575  0.9724032232696445  0.5985984048610788   T   T   T
  0.6354345162000712  0.4953233184683299  0.6038888387702741   T   T   T
  0.6785625653123475  0.7461885842237095  0.3973701224482440   F   F   F
  0.7077684340787798  0.2675524716106779  0.4024531109080840   F   F   F
  0.7183960574240871  0.7730680191165717  0.4700831416095568   F   F   F
  0.7476513023313274  0.2944066185149694  0.4751769629813154   F   F   F
  0.0676633879619999  0.9483286728214892  0.5248726856251835   F   F   F
  0.0968692567284322  0.4696925602084576  0.5299556740850235   F   F   F
  0.1045952856866705  0.9724317208980935  0.5985937221074806   T   T   T
  0.1354316888208160  0.4953554612569988  0.6038912719220875   T   T   T
  0.9549693782273607  0.1488106162199045  0.6524599334897090   T   T   T
  0.9854533491419417  0.6711213806117584  0.6579473572649377   T   T   T
  0.9925817431073440  0.1737055620777070  0.7258823630447964   T   T   T
  0.0204710363279261  0.6975521179615995  0.7321244457976732   T   T   T
  0.3398290262215511  0.3473957608394116  0.7798481568143103   T   T   T
  0.3696403619585951  0.8767190618409444  0.7860202299245032   T   T   T
  0.4549302030736300  0.1487688715205238  0.6524643657038496   T   T   T
  0.4854340046679653  0.6710976891119600  0.6579418863028863   T   T   T
  0.4927609814786109  0.1738293745406310  0.7259084453023945   T   T   T
  0.5206088833807172  0.6977630044985261  0.7321504072495699   T   T   T
  0.8396950758770458  0.3471767022667223  0.7798310654553617   T   T   T
  0.8694030540319133  0.8765695236563076  0.7859873350577402   T   T   T
  0.4166371715615469  0.3533824824666141  0.1871900805065323   F   F   F
  0.8422223683106935  0.0808706008398019  0.3028370457523124   F   F   F
  0.8057363126809278  0.5555225735755087  0.3146923657843246   F   F   F
  0.9166372579730009  0.3533828652646420  0.1871899969618056   F   F   F
  0.3422224481744749  0.0808709810022847  0.3028372399850809   F   F   F
  0.3057363925447092  0.5555229537379915  0.3146925600170931   F   F   F
  0.2313223146517842  0.2830110116615145  0.4303395816391529   F   F   F
  0.1948379450004367  0.7576629818860994  0.4421951795703123   F   F   F
  0.6204231417495905  0.4851511002592872  0.5578421448160853   F   F   F
  0.5817453864387332  0.9574048997760158  0.5707612737874257   T   T   T
  0.7313223989637194  0.2830113918239974  0.4303397758719214   F   F   F
  0.6948380314118907  0.7576633646841273  0.4421950960255856   F   F   F
  0.1204232216133718  0.4851514804217700  0.5578423390488538   F   F   F
  0.0817340400583291  0.9574870126912813  0.5707597711340213   T   T   T
  0.0076178594370830  0.6865676283921900  0.6857759151301721   T   T   T
  0.9708382577590697  0.1583193902649214  0.6980365519282401   T   T   T
  0.4042023388068401  0.9144617860301310  0.8123708240855976   T   T   T
  0.5074331583004508  0.6863705269720697  0.6857688561021504   T   T   T
  0.4706740822027342  0.1580983219893497  0.6980731599315320   T   T   T
  0.9044056320530203  0.9146107039582532  0.8123225873344850   T   T   T
 
  0.00000000E+00  0.00000000E+00  0.00000000E+00
  0.00000000E+00  0.00000000E+00  0.00000000E+00
  0.00000000E+00  0.00000000E+00  0.00000000E+00
  0.00000000E+00  0.00000000E+00  0.00000000E+00
  0.00000000E+00  0.00000000E+00  0.00000000E+00
  0.00000000E+00  0.00000000E+00  0.00000000E+00
  0.00000000E+00  0.00000000E+00  0.00000000E+00
  0.00000000E+00  0.00000000E+00  0.00000000E+00
  0.00000000E+00  0.00000000E+00  0.00000000E+00
  0.00000000E+00  0.00000000E+00  0.00000000E+00
  0.00000000E+00  0.00000000E+00  0.00000000E+00
  0.00000000E+00  0.00000000E+00  0.00000000E+00
  0.00000000E+00  0.00000000E+00  0.00000000E+00
  0.00000000E+00  0.00000000E+00  0.00000000E+00
  0.00000000E+00  0.00000000E+00  0.00000000E+00
  0.00000000E+00  0.00000000E+00  0.00000000E+00
  0.00000000E+00  0.00000000E+00  0.00000000E+00
  0.00000000E+00  0.00000000E+00  0.00000000E+00
  0.00000000E+00  0.00000000E+00  0.00000000E+00
  0.00000000E+00  0.00000000E+00  0.00000000E+00
  0.00000000E+00  0.00000000E+00  0.00000000E+00
  0.00000000E+00  0.00000000E+00  0.00000000E+00
  0.00000000E+00  0.00000000E+00  0.00000000E+00
  0.00000000E+00  0.00000000E+00  0.00000000E+00
  0.00000000E+00  0.00000000E+00  0.00000000E+00
  0.00000000E+00  0.00000000E+00  0.00000000E+00
  0.00000000E+00  0.00000000E+00  0.00000000E+00
  0.00000000E+00  0.00000000E+00  0.00000000E+00
  0.00000000E+00  0.00000000E+00  0.00000000E+00
  0.00000000E+00  0.00000000E+00  0.00000000E+00
  0.00000000E+00  0.00000000E+00  0.00000000E+00
  0.00000000E+00  0.00000000E+00  0.00000000E+00
  0.00000000E+00  0.00000000E+00  0.00000000E+00
  0.00000000E+00  0.00000000E+00  0.00000000E+00
  0.00000000E+00  0.00000000E+00  0.00000000E+00
  0.00000000E+00  0.00000000E+00  0.00000000E+00
  0.00000000E+00  0.00000000E+00  0.00000000E+00
  0.00000000E+00  0.00000000E+00  0.00000000E+00
  0.00000000E+00  0.00000000E+00  0.00000000E+00
  0.00000000E+00  0.00000000E+00  0.00000000E+00
  0.00000000E+00  0.00000000E+00  0.00000000E+00
  0.00000000E+00  0.00000000E+00  0.00000000E+00
  0.00000000E+00  0.00000000E+00  0.00000000E+00
  0.00000000E+00  0.00000000E+00  0.00000000E+00
  0.00000000E+00  0.00000000E+00  0.00000000E+00
  0.00000000E+00  0.00000000E+00  0.00000000E+00
  0.00000000E+00  0.00000000E+00  0.00000000E+00
  0.00000000E+00  0.00000000E+00  0.00000000E+00
  0.00000000E+00  0.00000000E+00  0.00000000E+00
  0.00000000E+00  0.00000000E+00  0.00000000E+00
  0.00000000E+00  0.00000000E+00  0.00000000E+00
  0.00000000E+00  0.00000000E+00  0.00000000E+00
  0.00000000E+00  0.00000000E+00  0.00000000E+00
  0.00000000E+00  0.00000000E+00  0.00000000E+00
  0.00000000E+00  0.00000000E+00  0.00000000E+00
  0.00000000E+00  0.00000000E+00  0.00000000E+00
  0.00000000E+00  0.00000000E+00  0.00000000E+00
  0.00000000E+00  0.00000000E+00  0.00000000E+00
  0.00000000E+00  0.00000000E+00  0.00000000E+00
  0.00000000E+00  0.00000000E+00  0.00000000E+00
  0.00000000E+00  0.00000000E+00  0.00000000E+00
  0.00000000E+00  0.00000000E+00  0.00000000E+00
  0.00000000E+00  0.00000000E+00  0.00000000E+00
  0.00000000E+00  0.00000000E+00  0.00000000E+00
  0.00000000E+00  0.00000000E+00  0.00000000E+00
  0.00000000E+00  0.00000000E+00  0.00000000E+00
  0.00000000E+00  0.00000000E+00  0.00000000E+00
  0.00000000E+00  0.00000000E+00  0.00000000E+00
  0.00000000E+00  0.00000000E+00  0.00000000E+00
  0.00000000E+00  0.00000000E+00  0.00000000E+00
  0.00000000E+00  0.00000000E+00  0.00000000E+00
  0.00000000E+00  0.00000000E+00  0.00000000E+00
  0.00000000E+00  0.00000000E+00  0.00000000E+00
  0.00000000E+00  0.00000000E+00  0.00000000E+00
  0.00000000E+00  0.00000000E+00  0.00000000E+00
  0.00000000E+00  0.00000000E+00  0.00000000E+00
  0.00000000E+00  0.00000000E+00  0.00000000E+00
  0.00000000E+00  0.00000000E+00  0.00000000E+00
  0.00000000E+00  0.00000000E+00  0.00000000E+00
  0.00000000E+00  0.00000000E+00  0.00000000E+00
